(set-logic LIA)
(declare-var x Int)
(declare-var y Int)
(declare-var x! Int)
(declare-var y! Int)
(synth-fun inv-f((parameter0 Int)(parameter1 Int))Bool) 
(constraint (=> (<= y 1000000)(inv-f x y )))
(constraint (=> (and (inv-f x y ) (and (< x 100) (> y 0) (= x! (+ x y )) (= y! y) ) )(inv-f x! y! )))
(constraint (=> (inv-f x y )(=> (or (<= y 0) (and (> y 0) (>= x 100) ) )(or (<= y 0) (and (> y 0) (>= x 100) ) ))))
(check-synth)

